(set-info :smt-lib-version 2.6)
(set-logic QF_ABV)
(set-info :source |
Generated by the tool Ultimate Automizer [1,2] which implements
an automata theoretic approach [3] to software verification.

This SMT script belongs to a set of SMT scripts that was generated by
applying Ultimate Automizer to benchmarks [4] from the SV-COMP 2023 [5,6].
This script may not contain all SMT commands that Ultimate Automizer
issued. In order to meet the restrictions for SMT-COMP benchmarks 
we dropped the commands for getting values (resp. models), 
unsatisfiable cores, and interpolants.

2023-03-21, Matthias Heizmann (heizmann@informatik.uni-freiburg.de)

[1] https://ultimate.informatik.uni-freiburg.de/automizer/
[2] Matthias Heizmann, Max Barth, Daniel Dietsch, Leonard Fichtner,
     Jochen Hoenicke, Dominik Klumpp, Mehdi Naouar, Tanja Schindler,
     Frank Schüssele, Andreas Podelski: Ultimate Automizer and the
     CommuHash Normal Form (Competition Contribution). TACAS 2023
[3] Matthias Heizmann, Jochen Hoenicke, Andreas Podelski: Software Model
     Checking for People Who Love Automata. CAV 2013
[4] https://github.com/sosy-lab/sv-benchmarks
[5] Dirk Beyer: Competition on Software Verification and
     Witness Validation: SV-COMP 2023.  TACAS 2023
[6] https://sv-comp.sosy-lab.org/2023/
|)
(set-info :license "https://creativecommons.org/licenses/by/4.0/")
(set-info :category "industrial")
(set-info :status unknown)
(declare-fun |#funAddr~ssl3_accept.base| () (_ BitVec 64))
(declare-fun |#funAddr~ssl3_accept.offset| () (_ BitVec 64))
(declare-fun |#funAddr~ssl3_get_server_method.base| () (_ BitVec 64))
(declare-fun |#funAddr~ssl3_get_server_method.offset| () (_ BitVec 64))
(declare-fun |c_#valid| () (Array (_ BitVec 64) (_ BitVec 1)))
(declare-fun |c_#valid_primed| () (Array (_ BitVec 64) (_ BitVec 1)))
(declare-fun |c_#length| () (Array (_ BitVec 64) (_ BitVec 64)))
(declare-fun |c_#length_primed| () (Array (_ BitVec 64) (_ BitVec 64)))
(declare-fun |c_#memory_int| () (Array (_ BitVec 64) (Array (_ BitVec 64) (_ BitVec 8))))
(declare-fun |c_#memory_int_primed| () (Array (_ BitVec 64) (Array (_ BitVec 64) (_ BitVec 8))))
(declare-fun |c_#memory_$Pointer$.base| () (Array (_ BitVec 64) (Array (_ BitVec 64) (_ BitVec 64))))
(declare-fun |c_#memory_$Pointer$.base_primed| () (Array (_ BitVec 64) (Array (_ BitVec 64) (_ BitVec 64))))
(declare-fun |c_#memory_$Pointer$.offset| () (Array (_ BitVec 64) (Array (_ BitVec 64) (_ BitVec 64))))
(declare-fun |c_#memory_$Pointer$.offset_primed| () (Array (_ BitVec 64) (Array (_ BitVec 64) (_ BitVec 64))))
(declare-fun |c_#StackHeapBarrier| () (_ BitVec 64))
(declare-fun |c_ULTIMATE.start_main_~s~0#1.base_primed| () (_ BitVec 64))
(declare-fun |c_ULTIMATE.start_main_~s~0#1.offset_primed| () (_ BitVec 64))
(assert (and (= (_ bv0 64) (bvadd (_ bv1 64) |#funAddr~ssl3_accept.base|)) (= (_ bv0 64) |#funAddr~ssl3_accept.offset|)))
(assert (and (= |#funAddr~ssl3_get_server_method.offset| (_ bv1 64)) (= (_ bv0 64) (bvadd (_ bv1 64) |#funAddr~ssl3_get_server_method.base|))))
(declare-fun |c_aux_v_#memory_$Pointer$.offset_20| () (Array (_ BitVec 64) (Array (_ BitVec 64) (_ BitVec 64))))
(declare-fun |c_aux_v_ULTIMATE.start_main_#t~nondet15#1_4| () (_ BitVec 64))
(declare-fun |c_aux_v_ULTIMATE.start_main_#t~malloc9#1.base_4| () (_ BitVec 64))
(declare-fun |c_aux_v_#memory_int_16| () (Array (_ BitVec 64) (Array (_ BitVec 64) (_ BitVec 8))))
(declare-fun |c_aux_v_#memory_int_17| () (Array (_ BitVec 64) (Array (_ BitVec 64) (_ BitVec 8))))
(declare-fun |c_aux_v_#memory_int_18| () (Array (_ BitVec 64) (Array (_ BitVec 64) (_ BitVec 8))))
(declare-fun |c_aux_v_#memory_int_19| () (Array (_ BitVec 64) (Array (_ BitVec 64) (_ BitVec 8))))
(declare-fun |c_aux_v_ULTIMATE.start_main_#t~malloc19#1.base_4| () (_ BitVec 64))
(declare-fun |c_aux_v_#memory_$Pointer$.base_20| () (Array (_ BitVec 64) (Array (_ BitVec 64) (_ BitVec 64))))
(declare-fun |c_aux_v_ULTIMATE.start_main_#t~nondet13#1_4| () (_ BitVec 32))
(declare-fun |c_aux_v_ULTIMATE.start_main_#t~nondet22#1_4| () (_ BitVec 64))
(declare-fun |c_aux_v_#memory_int_20| () (Array (_ BitVec 64) (Array (_ BitVec 64) (_ BitVec 8))))
(declare-fun |c_aux_v_#memory_int_21| () (Array (_ BitVec 64) (Array (_ BitVec 64) (_ BitVec 8))))
(declare-fun |c_aux_v_ULTIMATE.start_main_#t~malloc10#1.base_4| () (_ BitVec 64))
(declare-fun |c_aux_v_#memory_$Pointer$.offset_16| () (Array (_ BitVec 64) (Array (_ BitVec 64) (_ BitVec 64))))
(declare-fun |c_aux_v_ULTIMATE.start_main_#t~nondet17#1_4| () (_ BitVec 32))
(declare-fun |c_aux_v_ULTIMATE.start_main_#t~nondet25#1_4| () (_ BitVec 64))
(declare-fun |c_aux_v_#memory_$Pointer$.offset_17| () (Array (_ BitVec 64) (Array (_ BitVec 64) (_ BitVec 64))))
(declare-fun |c_aux_v_ULTIMATE.start_main_#t~nondet12#1_4| () (_ BitVec 64))
(declare-fun |c_aux_v_#memory_$Pointer$.offset_18| () (Array (_ BitVec 64) (Array (_ BitVec 64) (_ BitVec 64))))
(declare-fun |c_aux_v_#memory_$Pointer$.offset_19| () (Array (_ BitVec 64) (Array (_ BitVec 64) (_ BitVec 64))))
(declare-fun |c_aux_v_#memory_$Pointer$.base_18| () (Array (_ BitVec 64) (Array (_ BitVec 64) (_ BitVec 64))))
(declare-fun |c_aux_v_#memory_$Pointer$.base_19| () (Array (_ BitVec 64) (Array (_ BitVec 64) (_ BitVec 64))))
(declare-fun |c_aux_v_#memory_$Pointer$.base_16| () (Array (_ BitVec 64) (Array (_ BitVec 64) (_ BitVec 64))))
(declare-fun |c_aux_v_ULTIMATE.start_main_#t~nondet11#1_4| () (_ BitVec 64))
(declare-fun |c_aux_v_#memory_$Pointer$.base_17| () (Array (_ BitVec 64) (Array (_ BitVec 64) (_ BitVec 64))))
(declare-fun |c_aux_v_ULTIMATE.start_main_#t~malloc8#1.base_4| () (_ BitVec 64))
(assert (let ((.cse12 (bvadd (_ bv116 64) |c_ULTIMATE.start_main_~s~0#1.offset_primed|))) (let ((.cse58 (select |c_aux_v_#memory_$Pointer$.offset_16| |c_ULTIMATE.start_main_~s~0#1.base_primed|)) (.cse22 (select |c_aux_v_#memory_$Pointer$.base_16| |c_ULTIMATE.start_main_~s~0#1.base_primed|)) (.cse14 (bvadd (_ bv248 64) |c_ULTIMATE.start_main_~s~0#1.offset_primed|)) (.cse63 (select (select |c_aux_v_#memory_$Pointer$.base_20| |c_ULTIMATE.start_main_~s~0#1.base_primed|) .cse12)) (.cse64 (bvadd (_ bv888 64) (select (select |c_aux_v_#memory_$Pointer$.offset_17| |c_ULTIMATE.start_main_~s~0#1.base_primed|) .cse12)))) (let ((.cse67 (store |c_aux_v_#memory_$Pointer$.offset_17| .cse63 (store (select |c_aux_v_#memory_$Pointer$.offset_17| .cse63) .cse64 (_ bv0 64)))) (.cse47 (store |c_aux_v_#memory_$Pointer$.base_20| .cse63 (store (select |c_aux_v_#memory_$Pointer$.base_20| .cse63) .cse64 |c_aux_v_ULTIMATE.start_main_#t~malloc19#1.base_4|))) (.cse70 (select .cse22 .cse14)) (.cse71 (bvadd (select .cse58 .cse14) (_ bv152 64))) (.cse66 (store |c_#valid| |c_ULTIMATE.start_main_~s~0#1.base_primed| (_ bv1 1)))) (let ((.cse36 (store .cse66 |c_aux_v_ULTIMATE.start_main_#t~malloc8#1.base_4| (_ bv1 1))) (.cse40 (store |c_aux_v_#memory_$Pointer$.offset_16| .cse70 (store (select |c_aux_v_#memory_$Pointer$.offset_16| .cse70) .cse71 |c_aux_v_ULTIMATE.start_main_#t~nondet15#1_4|))) (.cse77 (select (select |c_aux_v_#memory_$Pointer$.base_19| |c_ULTIMATE.start_main_~s~0#1.base_primed|) .cse12)) (.cse78 (bvadd (select (select |c_aux_v_#memory_$Pointer$.offset_19| |c_ULTIMATE.start_main_~s~0#1.base_primed|) .cse12) (_ bv888 64))) (.cse74 (select (select .cse47 |c_ULTIMATE.start_main_~s~0#1.base_primed|) .cse12)) (.cse75 (bvadd (_ bv888 64) (select (select .cse67 |c_ULTIMATE.start_main_~s~0#1.base_primed|) .cse12)))) (let ((.cse76 (select (select .cse67 .cse74) .cse75)) (.cse79 (select (select |c_aux_v_#memory_$Pointer$.offset_19| .cse77) .cse78)) (.cse80 (select (select .cse40 |c_ULTIMATE.start_main_~s~0#1.base_primed|) .cse12)) (.cse59 (store |c_aux_v_#memory_$Pointer$.base_16| .cse70 (store (select |c_aux_v_#memory_$Pointer$.base_16| .cse70) .cse71 (_ bv0 64)))) (.cse39 (store .cse36 |c_aux_v_ULTIMATE.start_main_#t~malloc9#1.base_4| (_ bv1 1)))) (let ((.cse0 (select |c_aux_v_#memory_$Pointer$.offset_20| |c_ULTIMATE.start_main_~s~0#1.base_primed|)) (.cse19 (select |c_aux_v_#memory_$Pointer$.base_18| |c_ULTIMATE.start_main_~s~0#1.base_primed|)) (.cse20 (select |c_aux_v_#memory_$Pointer$.base_17| |c_ULTIMATE.start_main_~s~0#1.base_primed|)) (.cse13 (bvadd |c_ULTIMATE.start_main_~s~0#1.offset_primed| (_ bv288 64))) (.cse11 (store .cse39 |c_aux_v_ULTIMATE.start_main_#t~malloc10#1.base_4| (_ bv1 1))) (.cse3 (select |c_aux_v_#memory_$Pointer$.offset_18| |c_ULTIMATE.start_main_~s~0#1.base_primed|)) (.cse41 (select (select .cse59 |c_ULTIMATE.start_main_~s~0#1.base_primed|) .cse12)) (.cse42 (bvadd (_ bv975 64) .cse80)) (.cse44 (bvadd (_ bv976 64) .cse80)) (.cse45 (bvadd (_ bv977 64) .cse80)) (.cse46 (bvadd .cse80 (_ bv978 64))) (.cse27 (bvadd (_ bv28 64) .cse79)) (.cse29 (bvadd .cse79 (_ bv29 64))) (.cse30 (bvadd .cse79 (_ bv30 64))) (.cse31 (bvadd .cse79 (_ bv31 64))) (.cse32 (bvadd .cse79 (_ bv32 64))) (.cse33 (bvadd (_ bv33 64) .cse79)) (.cse34 (bvadd (_ bv34 64) .cse79)) (.cse35 (bvadd .cse79 (_ bv35 64))) (.cse26 (select (select |c_aux_v_#memory_$Pointer$.base_19| .cse77) .cse78)) (.cse49 (bvadd (_ bv20 64) .cse76)) (.cse51 (bvadd (_ bv21 64) .cse76)) (.cse52 (bvadd .cse76 (_ bv22 64))) (.cse53 (bvadd .cse76 (_ bv23 64))) (.cse54 (bvadd (_ bv24 64) .cse76)) (.cse55 (bvadd (_ bv25 64) .cse76)) (.cse56 (bvadd (_ bv26 64) .cse76)) (.cse57 (bvadd (_ bv27 64) .cse76)) (.cse48 (select (select .cse47 .cse74) .cse75)) (.cse2 (bvadd |c_ULTIMATE.start_main_~s~0#1.offset_primed| (_ bv332 64))) (.cse4 (bvadd |c_ULTIMATE.start_main_~s~0#1.offset_primed| (_ bv333 64))) (.cse5 (bvadd (_ bv334 64) |c_ULTIMATE.start_main_~s~0#1.offset_primed|)) (.cse6 (bvadd (_ bv335 64) |c_ULTIMATE.start_main_~s~0#1.offset_primed|)) (.cse7 (bvadd |c_ULTIMATE.start_main_~s~0#1.offset_primed| (_ bv336 64))) (.cse8 (bvadd |c_ULTIMATE.start_main_~s~0#1.offset_primed| (_ bv337 64))) (.cse9 (bvadd |c_ULTIMATE.start_main_~s~0#1.offset_primed| (_ bv338 64))) (.cse10 (bvadd |c_ULTIMATE.start_main_~s~0#1.offset_primed| (_ bv339 64))) (.cse21 (bvadd (_ bv256 64) |c_ULTIMATE.start_main_~s~0#1.offset_primed|)) (.cse23 (bvadd (_ bv257 64) |c_ULTIMATE.start_main_~s~0#1.offset_primed|)) (.cse24 (bvadd (_ bv258 64) |c_ULTIMATE.start_main_~s~0#1.offset_primed|)) (.cse25 (bvadd |c_ULTIMATE.start_main_~s~0#1.offset_primed| (_ bv259 64))) (.cse37 (select |c_aux_v_#memory_int_19| |c_ULTIMATE.start_main_~s~0#1.base_primed|)) (.cse38 (select |c_aux_v_#memory_int_18| |c_ULTIMATE.start_main_~s~0#1.base_primed|)) (.cse73 (select |c_aux_v_#memory_int_17| |c_ULTIMATE.start_main_~s~0#1.base_primed|)) (.cse15 (bvadd |c_ULTIMATE.start_main_~s~0#1.offset_primed| (_ bv72 64))) (.cse16 (bvadd (_ bv73 64) |c_ULTIMATE.start_main_~s~0#1.offset_primed|)) (.cse17 (bvadd (_ bv74 64) |c_ULTIMATE.start_main_~s~0#1.offset_primed|)) (.cse18 (bvadd |c_ULTIMATE.start_main_~s~0#1.offset_primed| (_ bv75 64))) (.cse72 (select |c_aux_v_#memory_int_16| |c_ULTIMATE.start_main_~s~0#1.base_primed|)) (.cse1 (bvadd |c_ULTIMATE.start_main_~s~0#1.offset_primed| (_ bv272 64)))) (and (= |c_aux_v_#memory_$Pointer$.offset_18| (store |c_aux_v_#memory_$Pointer$.offset_20| |c_ULTIMATE.start_main_~s~0#1.base_primed| (store (store (store (store (store (store (store (store (store .cse0 .cse1 |c_aux_v_ULTIMATE.start_main_#t~nondet11#1_4|) .cse2 (select .cse3 .cse2)) .cse4 (select .cse3 .cse4)) .cse5 (select .cse3 .cse5)) .cse6 (select .cse3 .cse6)) .cse7 (select .cse3 .cse7)) .cse8 (select .cse3 .cse8)) .cse9 (select .cse3 .cse9)) .cse10 (select .cse3 .cse10)))) (= (store .cse11 |c_aux_v_ULTIMATE.start_main_#t~malloc19#1.base_4| (_ bv1 1)) |c_#valid_primed|) (= (store |c_#memory_$Pointer$.offset| |c_ULTIMATE.start_main_~s~0#1.base_primed| (store (store (store (store (store (store (store (select |c_#memory_$Pointer$.offset| |c_ULTIMATE.start_main_~s~0#1.base_primed|) .cse12 (_ bv0 64)) .cse13 (_ bv0 64)) .cse14 (_ bv0 64)) .cse15 (select .cse0 .cse15)) .cse16 (select .cse0 .cse16)) .cse17 (select .cse0 .cse17)) .cse18 (select .cse0 .cse18))) |c_aux_v_#memory_$Pointer$.offset_20|) (= |c_aux_v_#memory_$Pointer$.base_18| (store |c_#memory_$Pointer$.base| |c_ULTIMATE.start_main_~s~0#1.base_primed| (store (store (store (store (store (store (store (select |c_#memory_$Pointer$.base| |c_ULTIMATE.start_main_~s~0#1.base_primed|) .cse12 |c_aux_v_ULTIMATE.start_main_#t~malloc8#1.base_4|) .cse13 |c_aux_v_ULTIMATE.start_main_#t~malloc9#1.base_4|) .cse14 |c_aux_v_ULTIMATE.start_main_#t~malloc10#1.base_4|) .cse15 (select .cse19 .cse15)) .cse16 (select .cse19 .cse16)) .cse17 (select .cse19 .cse17)) .cse18 (select .cse19 .cse18)))) (= |c_aux_v_#memory_$Pointer$.base_17| (store |c_aux_v_#memory_$Pointer$.base_18| |c_ULTIMATE.start_main_~s~0#1.base_primed| (store (store (store (store (store (store (store (store (store .cse19 .cse1 (_ bv0 64)) .cse2 (select .cse20 .cse2)) .cse4 (select .cse20 .cse4)) .cse5 (select .cse20 .cse5)) .cse6 (select .cse20 .cse6)) .cse7 (select .cse20 .cse7)) .cse8 (select .cse20 .cse8)) .cse9 (select .cse20 .cse9)) .cse10 (select .cse20 .cse10)))) (bvult |c_aux_v_ULTIMATE.start_main_#t~malloc8#1.base_4| |c_#StackHeapBarrier|) (= (_ bv0 64) |c_ULTIMATE.start_main_~s~0#1.offset_primed|) (= (store |c_aux_v_#memory_$Pointer$.base_17| |c_ULTIMATE.start_main_~s~0#1.base_primed| (store (store (store (store .cse20 .cse21 (select .cse22 .cse21)) .cse23 (select .cse22 .cse23)) .cse24 (select .cse22 .cse24)) .cse25 (select .cse22 .cse25))) |c_aux_v_#memory_$Pointer$.base_16|) (= |c_#memory_$Pointer$.base_primed| (store |c_aux_v_#memory_$Pointer$.base_19| .cse26 (let ((.cse28 (select |c_#memory_$Pointer$.base_primed| .cse26))) (store (store (store (store (store (store (store (store (select |c_aux_v_#memory_$Pointer$.base_19| .cse26) .cse27 (select .cse28 .cse27)) .cse29 (select .cse28 .cse29)) .cse30 (select .cse28 .cse30)) .cse31 (select .cse28 .cse31)) .cse32 (select .cse28 .cse32)) .cse33 (select .cse28 .cse33)) .cse34 (select .cse28 .cse34)) .cse35 (select .cse28 .cse35))))) (not (= (_ bv0 64) |c_ULTIMATE.start_main_~s~0#1.base_primed|)) (= (_ bv0 1) (select .cse36 |c_aux_v_ULTIMATE.start_main_#t~malloc9#1.base_4|)) (bvult |c_aux_v_ULTIMATE.start_main_#t~malloc19#1.base_4| |c_#StackHeapBarrier|) (= (store |c_aux_v_#memory_int_19| |c_ULTIMATE.start_main_~s~0#1.base_primed| (store .cse37 .cse13 (select .cse38 .cse13))) |c_aux_v_#memory_int_18|) (= (_ bv0 1) (select .cse39 |c_aux_v_ULTIMATE.start_main_#t~malloc10#1.base_4|)) (= |c_aux_v_#memory_$Pointer$.offset_17| (store .cse40 .cse41 (let ((.cse43 (select |c_aux_v_#memory_$Pointer$.offset_17| .cse41))) (store (store (store (store (select .cse40 .cse41) .cse42 (select .cse43 .cse42)) .cse44 (select .cse43 .cse44)) .cse45 (select .cse43 .cse45)) .cse46 (select .cse43 .cse46))))) (= (_ bv0 1) (select .cse11 |c_aux_v_ULTIMATE.start_main_#t~malloc19#1.base_4|)) (not (= (_ bv0 64) |c_aux_v_ULTIMATE.start_main_#t~malloc8#1.base_4|)) (= |c_aux_v_#memory_$Pointer$.base_19| (store .cse47 .cse48 (let ((.cse50 (select |c_aux_v_#memory_$Pointer$.base_19| .cse48))) (store (store (store (store (store (store (store (store (select .cse47 .cse48) .cse49 (select .cse50 .cse49)) .cse51 (select .cse50 .cse51)) .cse52 (select .cse50 .cse52)) .cse53 (select .cse50 .cse53)) .cse54 (select .cse50 .cse54)) .cse55 (select .cse50 .cse55)) .cse56 (select .cse50 .cse56)) .cse57 (select .cse50 .cse57))))) (= (store |c_aux_v_#memory_$Pointer$.offset_18| |c_ULTIMATE.start_main_~s~0#1.base_primed| (store (store (store (store .cse3 .cse21 (select .cse58 .cse21)) .cse23 (select .cse58 .cse23)) .cse24 (select .cse58 .cse24)) .cse25 (select .cse58 .cse25))) |c_aux_v_#memory_$Pointer$.offset_16|) (not (= (_ bv0 64) |c_aux_v_ULTIMATE.start_main_#t~malloc19#1.base_4|)) (= (store .cse59 .cse41 (let ((.cse60 (select |c_aux_v_#memory_$Pointer$.base_20| .cse41))) (store (store (store (store (select .cse59 .cse41) .cse42 (select .cse60 .cse42)) .cse44 (select .cse60 .cse44)) .cse45 (select .cse60 .cse45)) .cse46 (select .cse60 .cse46)))) |c_aux_v_#memory_$Pointer$.base_20|) (= (let ((.cse61 (store |c_aux_v_#memory_int_20| .cse48 (store (store (store (store (store (store (store (store (select |c_aux_v_#memory_int_20| .cse48) .cse49 ((_ extract 7 0) |c_aux_v_ULTIMATE.start_main_#t~nondet22#1_4|)) .cse51 ((_ extract 15 8) |c_aux_v_ULTIMATE.start_main_#t~nondet22#1_4|)) .cse52 ((_ extract 23 16) |c_aux_v_ULTIMATE.start_main_#t~nondet22#1_4|)) .cse53 ((_ extract 31 24) |c_aux_v_ULTIMATE.start_main_#t~nondet22#1_4|)) .cse54 ((_ extract 39 32) |c_aux_v_ULTIMATE.start_main_#t~nondet22#1_4|)) .cse55 ((_ extract 47 40) |c_aux_v_ULTIMATE.start_main_#t~nondet22#1_4|)) .cse56 ((_ extract 55 48) |c_aux_v_ULTIMATE.start_main_#t~nondet22#1_4|)) .cse57 ((_ extract 63 56) |c_aux_v_ULTIMATE.start_main_#t~nondet22#1_4|))))) (store .cse61 .cse26 (store (store (store (store (store (store (store (store (select .cse61 .cse26) .cse27 ((_ extract 7 0) |c_aux_v_ULTIMATE.start_main_#t~nondet25#1_4|)) .cse29 ((_ extract 15 8) |c_aux_v_ULTIMATE.start_main_#t~nondet25#1_4|)) .cse30 ((_ extract 23 16) |c_aux_v_ULTIMATE.start_main_#t~nondet25#1_4|)) .cse31 ((_ extract 31 24) |c_aux_v_ULTIMATE.start_main_#t~nondet25#1_4|)) .cse32 ((_ extract 39 32) |c_aux_v_ULTIMATE.start_main_#t~nondet25#1_4|)) .cse33 ((_ extract 47 40) |c_aux_v_ULTIMATE.start_main_#t~nondet25#1_4|)) .cse34 ((_ extract 55 48) |c_aux_v_ULTIMATE.start_main_#t~nondet25#1_4|)) .cse35 ((_ extract 63 56) |c_aux_v_ULTIMATE.start_main_#t~nondet25#1_4|)))) |c_#memory_int_primed|) (= |c_#length_primed| (store (store (store (store (store |c_#length| |c_ULTIMATE.start_main_~s~0#1.base_primed| (_ bv356 64)) |c_aux_v_ULTIMATE.start_main_#t~malloc8#1.base_4| (_ bv979 64)) |c_aux_v_ULTIMATE.start_main_#t~malloc9#1.base_4| (_ bv348 64)) |c_aux_v_ULTIMATE.start_main_#t~malloc10#1.base_4| (_ bv244 64)) |c_aux_v_ULTIMATE.start_main_#t~malloc19#1.base_4| (_ bv68 64))) (bvult |c_ULTIMATE.start_main_~s~0#1.base_primed| |c_#StackHeapBarrier|) (not (= (_ bv0 64) |c_aux_v_ULTIMATE.start_main_#t~malloc9#1.base_4|)) (= |c_aux_v_#memory_int_20| (let ((.cse62 (store |c_aux_v_#memory_int_21| .cse41 (store (store (store (store (select |c_aux_v_#memory_int_21| .cse41) .cse42 ((_ extract 7 0) |c_aux_v_ULTIMATE.start_main_#t~nondet17#1_4|)) .cse44 ((_ extract 15 8) |c_aux_v_ULTIMATE.start_main_#t~nondet17#1_4|)) .cse45 ((_ extract 23 16) |c_aux_v_ULTIMATE.start_main_#t~nondet17#1_4|)) .cse46 ((_ extract 31 24) |c_aux_v_ULTIMATE.start_main_#t~nondet17#1_4|))))) (store .cse62 .cse63 (store (select .cse62 .cse63) .cse64 (select (select |c_aux_v_#memory_int_20| .cse63) .cse64))))) (bvult |c_aux_v_ULTIMATE.start_main_#t~malloc9#1.base_4| |c_#StackHeapBarrier|) (= (store |c_aux_v_#memory_$Pointer$.offset_19| .cse26 (let ((.cse65 (select |c_#memory_$Pointer$.offset_primed| .cse26))) (store (store (store (store (store (store (store (store (select |c_aux_v_#memory_$Pointer$.offset_19| .cse26) .cse27 (select .cse65 .cse27)) .cse29 (select .cse65 .cse29)) .cse30 (select .cse65 .cse30)) .cse31 (select .cse65 .cse31)) .cse32 (select .cse65 .cse32)) .cse33 (select .cse65 .cse33)) .cse34 (select .cse65 .cse34)) .cse35 (select .cse65 .cse35)))) |c_#memory_$Pointer$.offset_primed|) (= (select .cse66 |c_aux_v_ULTIMATE.start_main_#t~malloc8#1.base_4|) (_ bv0 1)) (= |c_aux_v_#memory_$Pointer$.offset_19| (store .cse67 .cse48 (let ((.cse68 (select |c_aux_v_#memory_$Pointer$.offset_19| .cse48))) (store (store (store (store (store (store (store (store (select .cse67 .cse48) .cse49 (select .cse68 .cse49)) .cse51 (select .cse68 .cse51)) .cse52 (select .cse68 .cse52)) .cse53 (select .cse68 .cse53)) .cse54 (select .cse68 .cse54)) .cse55 (select .cse68 .cse55)) .cse56 (select .cse68 .cse56)) .cse57 (select .cse68 .cse57))))) (= (let ((.cse69 (store |c_aux_v_#memory_int_16| |c_ULTIMATE.start_main_~s~0#1.base_primed| (store (store (store (store (store (store (store (store (store (store (store (store .cse72 .cse2 ((_ extract 7 0) |c_aux_v_ULTIMATE.start_main_#t~nondet12#1_4|)) .cse4 ((_ extract 15 8) |c_aux_v_ULTIMATE.start_main_#t~nondet12#1_4|)) .cse5 ((_ extract 23 16) |c_aux_v_ULTIMATE.start_main_#t~nondet12#1_4|)) .cse6 ((_ extract 31 24) |c_aux_v_ULTIMATE.start_main_#t~nondet12#1_4|)) .cse7 ((_ extract 39 32) |c_aux_v_ULTIMATE.start_main_#t~nondet12#1_4|)) .cse8 ((_ extract 47 40) |c_aux_v_ULTIMATE.start_main_#t~nondet12#1_4|)) .cse9 ((_ extract 55 48) |c_aux_v_ULTIMATE.start_main_#t~nondet12#1_4|)) .cse10 ((_ extract 63 56) |c_aux_v_ULTIMATE.start_main_#t~nondet12#1_4|)) .cse21 ((_ extract 7 0) |c_aux_v_ULTIMATE.start_main_#t~nondet13#1_4|)) .cse23 ((_ extract 15 8) |c_aux_v_ULTIMATE.start_main_#t~nondet13#1_4|)) .cse24 ((_ extract 23 16) |c_aux_v_ULTIMATE.start_main_#t~nondet13#1_4|)) .cse25 ((_ extract 31 24) |c_aux_v_ULTIMATE.start_main_#t~nondet13#1_4|))))) (store .cse69 .cse70 (store (select .cse69 .cse70) .cse71 (select (select |c_aux_v_#memory_int_21| .cse70) .cse71)))) |c_aux_v_#memory_int_21|) (= (select |c_#valid| |c_ULTIMATE.start_main_~s~0#1.base_primed|) (_ bv0 1)) (= (store |c_#memory_int| |c_ULTIMATE.start_main_~s~0#1.base_primed| (store (select |c_#memory_int| |c_ULTIMATE.start_main_~s~0#1.base_primed|) .cse12 (select .cse37 .cse12))) |c_aux_v_#memory_int_19|) (bvult |c_aux_v_ULTIMATE.start_main_#t~malloc10#1.base_4| |c_#StackHeapBarrier|) (= (store |c_aux_v_#memory_int_18| |c_ULTIMATE.start_main_~s~0#1.base_primed| (store .cse38 .cse14 (select .cse73 .cse14))) |c_aux_v_#memory_int_17|) (not (= (_ bv0 64) |c_aux_v_ULTIMATE.start_main_#t~malloc10#1.base_4|)) (= |c_aux_v_#memory_int_16| (store |c_aux_v_#memory_int_17| |c_ULTIMATE.start_main_~s~0#1.base_primed| (store (store (store (store (store .cse73 .cse15 ((_ extract 7 0) (_ bv8464 32))) .cse16 ((_ extract 15 8) (_ bv8464 32))) .cse17 ((_ extract 23 16) (_ bv8464 32))) .cse18 ((_ extract 31 24) (_ bv8464 32))) .cse1 (select .cse72 .cse1))))))))))))
(assert (not (let ((.cse0 (bvadd |c_ULTIMATE.start_main_~s~0#1.offset_primed| (_ bv204 64)))) (and (= (_ bv0 64) (select (select |c_#memory_$Pointer$.offset_primed| |c_ULTIMATE.start_main_~s~0#1.base_primed|) .cse0)) (= (_ bv0 64) (select (select |c_#memory_$Pointer$.base_primed| |c_ULTIMATE.start_main_~s~0#1.base_primed|) .cse0))))))
(check-sat)
(exit)
